
Log started (V11.0.0) Sun Apr 13 14:10:01 2008

Tried aggregator 1 time.
Reduced MIP has 250 rows, 10001 columns, and 20050 nonzeros.
Presolve time =    0.08 sec.
Clique table members: 200.
MIP emphasis: balance optimality and feasibility.
MIP search method: dynamic search.
Parallel mode: none, using 1 thread.
Root relaxation solution time =    0.27 sec.

        Nodes                                         Cuts/
   Node  Left     Objective  IInf  Best Integer     Best Node    ItCnt     Gap

*     0+    0                        10544.0000       11.0903      934   99.89%
*     0+    0                           16.0000       11.0903      934   30.69%
      0     0       12.0000    41       16.0000      Fract: 4      954   25.00%
*     0+    0                           15.0000       12.0000      954   20.00%
      0     0       12.0000    51       15.0000       Cuts: 4      960   20.00%
*     0+    0                           14.0000       12.0000      960   14.29%
      0     0       12.0000    51       14.0000   Impl Bds: 1      970   14.29%

Repeating presolve.
Tried aggregator 1 time.
MIP Presolve eliminated 2 rows and 8746 columns.
MIP Presolve modified 3 coefficients.
Aggregator did 5 substitutions.
Reduced MIP has 243 rows, 1250 columns, and 2548 nonzeros.
Tried aggregator 1 time.
Represolve time =    0.06 sec.
Clique table members: 643.
MIP emphasis: balance optimality and feasibility.
MIP search method: dynamic search.
Parallel mode: none, using 1 thread.
Root relaxation solution time =    0.01 sec.

        Nodes                                         Cuts/
   Node  Left     Objective  IInf  Best Integer     Best Node    ItCnt     Gap

      0     0       12.0000    79       14.0000       12.0000      339   14.29%
      0     2       12.0000    79       14.0000       12.0000      339   14.29%
*    80+   20                           13.0000       12.0000     2113    7.69%
    100    41       12.0000    72       13.0000       12.0000     2577    7.69%
    200   109       12.0000    95       13.0000       12.0000     8314    7.69%
    300   107    infeasible             13.0000       12.0000    49457    7.69%
    400   125    infeasible             13.0000       12.0000    88728    7.69%
    500   105       12.0000   129       13.0000       12.0000   155111    7.69%
    600   111       12.0000   127       13.0000       12.0000   164405    7.69%
*   676+    1                           12.0000       12.0000   176681    0.00%

Clique cuts applied:  7
Cover cuts applied:  263
Zero-half cuts applied:  4
Gomory fractional cuts applied:  7

Solution pool: 6 solutions saved.

MIP - Integer optimal solution:  Objective = 1.2000000000e+001
Solution time =   31.70 sec.  Iterations = 176681  Nodes = 676


Incumbent solution
Variable Name           Solution Value
Cmax                         12.000000
X_1_35                        1.000000
X_2_17                        1.000000
X_3_34                        1.000000
X_4_43                        1.000000
X_5_31                        1.000000
X_6_4                         1.000000
X_7_39                        1.000000
X_8_27                        1.000000
X_9_37                        1.000000
X_10_1                        1.000000
X_11_22                       1.000000
X_12_38                       1.000000
X_13_27                       1.000000
X_14_9                        1.000000
X_15_28                       1.000000
X_16_26                       1.000000
X_17_11                       1.000000
X_18_25                       1.000000
X_19_6                        1.000000
X_20_8                        1.000000
X_21_6                        1.000000
X_22_28                       1.000000
X_23_38                       1.000000
X_24_2                        1.000000
X_25_24                       1.000000
X_26_4                        1.000000
X_27_5                        1.000000
X_28_40                       1.000000
X_29_22                       1.000000
X_30_47                       1.000000
X_31_29                       1.000000
X_32_13                       1.000000
X_33_48                       1.000000
X_34_13                       1.000000
X_35_1                        1.000000
X_36_22                       1.000000
X_37_20                       1.000000
X_38_29                       1.000000
X_39_40                       1.000000
X_40_3                        1.000000
X_41_29                       1.000000
X_42_46                       1.000000
X_43_18                       1.000000
X_44_31                       1.000000
X_45_42                       1.000000
X_46_7                        1.000000
X_47_7                        1.000000
X_48_29                       1.000000
X_49_10                       1.000000
X_50_32                       1.000000
X_51_25                       1.000000
X_52_13                       1.000000
X_53_9                        1.000000
X_54_7                        1.000000
X_55_14                       1.000000
X_56_35                       1.000000
X_57_49                       1.000000
X_58_23                       1.000000
X_59_19                       1.000000
X_60_11                       1.000000
X_61_2                        1.000000
X_62_37                       1.000000
X_63_23                       1.000000
X_64_41                       1.000000
X_65_25                       1.000000
X_66_17                       1.000000
X_67_43                       1.000000
X_68_14                       1.000000
X_69_42                       1.000000
X_70_20                       1.000000
X_71_39                       1.000000
X_72_23                       1.000000
X_73_49                       1.000000
X_74_44                       1.000000
X_75_42                       1.000000
X_76_12                       1.000000
X_77_34                       1.000000
X_78_50                       1.000000
X_79_45                       1.000000
X_80_1                        1.000000
X_81_41                       1.000000
X_82_38                       1.000000
X_83_34                       1.000000
X_84_33                       1.000000
X_85_49                       1.000000
X_86_32                       1.000000
X_87_42                       1.000000
X_88_30                       1.000000
X_89_35                       1.000000
X_90_21                       1.000000
X_91_3                        1.000000
X_92_30                       1.000000
X_93_24                       1.000000
X_94_30                       1.000000
X_95_23                       1.000000
X_96_25                       1.000000
X_97_28                       1.000000
X_98_5                        1.000000
X_99_10                       1.000000
X_100_1                       1.000000
X_101_21                      1.000000
X_102_18                      1.000000
X_103_2                       1.000000
X_104_1                       1.000000
X_105_18                      1.000000
X_106_45                      1.000000
X_107_7                       1.000000
X_108_47                      1.000000
X_109_42                      1.000000
X_110_14                      1.000000
X_111_50                      1.000000
X_112_33                      1.000000
X_113_5                       1.000000
X_114_16                      1.000000
X_115_32                      1.000000
X_116_48                      1.000000
X_117_48                      1.000000
X_118_34                      1.000000
X_119_48                      1.000000
X_120_13                      1.000000
X_121_22                      1.000000
X_122_41                      1.000000
X_123_19                      1.000000
X_124_39                      1.000000
X_125_35                      1.000000
X_126_19                      1.000000
X_127_34                      1.000000
X_128_15                      1.000000
X_129_29                      1.000000
X_130_19                      1.000000
X_131_33                      1.000000
X_132_24                      1.000000
X_133_32                      1.000000
X_134_28                      1.000000
X_135_37                      1.000000
X_136_12                      1.000000
X_137_42                      1.000000
X_138_18                      1.000000
X_139_5                       1.000000
X_140_36                      1.000000
X_141_15                      1.000000
X_142_50                      1.000000
X_143_28                      1.000000
X_144_46                      1.000000
X_145_24                      1.000000
X_146_44                      1.000000
X_147_41                      1.000000
X_148_50                      1.000000
X_149_46                      1.000000
X_150_31                      1.000000
X_151_4                       1.000000
X_152_16                      1.000000
X_153_8                       1.000000
X_154_35                      1.000000
X_155_35                      1.000000
X_156_26                      1.000000
X_157_37                      1.000000
X_158_46                      1.000000
X_159_19                      1.000000
X_160_14                      1.000000
X_161_41                      1.000000
X_162_18                      1.000000
X_163_9                       1.000000
X_164_32                      1.000000
X_165_33                      1.000000
X_166_38                      1.000000
X_167_39                      1.000000
X_168_40                      1.000000
X_169_26                      1.000000
X_170_21                      1.000000
X_171_14                      1.000000
X_172_37                      1.000000
X_173_50                      1.000000
X_174_12                      1.000000
X_175_11                      1.000000
X_176_40                      1.000000
X_177_46                      1.000000
X_178_25                      1.000000
X_179_17                      1.000000
X_180_15                      1.000000
X_181_6                       1.000000
X_182_12                      1.000000
X_183_45                      1.000000
X_184_17                      1.000000
X_185_5                       1.000000
X_186_45                      1.000000
X_187_29                      1.000000
X_188_3                       1.000000
X_189_16                      1.000000
X_190_9                       1.000000
X_191_4                       1.000000
X_192_29                      1.000000
X_193_7                       1.000000
X_194_50                      1.000000
X_195_49                      1.000000
X_196_36                      1.000000
X_197_16                      1.000000
X_198_7                       1.000000
X_199_2                       1.000000
X_200_48                      1.000000
All other variables in the range 1-10001 are 0.
